(set-logic ALL)
(set-option :produce-models true)

(declare-fun s161 () String)
(declare-fun s778 () String)
(declare-fun s902 () String)
(declare-fun s823 () String)
(declare-fun s892 () String)
(declare-fun s808 () String)
(declare-fun s736 () String)
(declare-fun s519 () String)
(declare-fun s753 () String)
(declare-fun s598 () String)
(declare-fun s380 () String)
(declare-fun s652 () String)
(declare-fun s853 () String)
(declare-fun s110 () String)
(declare-fun s59 () String)
(declare-fun s714 () String)
(declare-fun s455 () String)
(declare-fun s684 () String)
(declare-fun s474 () String)
(declare-fun s849 () String)
(declare-fun s654 () String)
(declare-fun s557 () String)
(declare-fun s847 () String)
(declare-fun s723 () String)
(declare-fun s754 () String)
(declare-fun s893 () String)
(declare-fun s497 () String)
(declare-fun s690 () String)
(declare-fun s191 () String)
(declare-fun s634 () String)
(declare-fun s437 () String)
(declare-fun s392 () String)
(declare-fun s42 () String)
(declare-fun s73 () String)
(declare-fun s648 () String)
(declare-fun s21 () String)
(declare-fun s895 () String)
(declare-fun s339 () String)
(declare-fun s346 () String)
(declare-fun s752 () String)
(declare-fun s651 () String)
(declare-fun s903 () String)
(declare-fun s781 () String)
(declare-fun s655 () String)
(declare-fun s483 () String)
(declare-fun s700 () String)
(declare-fun s311 () String)
(declare-fun s899 () String)
(declare-fun s205 () String)
(declare-fun s368 () String)
(declare-fun s629 () String)
(declare-fun s837 () String)
(declare-fun s670 () String)
(declare-fun s225 () String)
(declare-fun s244 () String)
(declare-fun s186 () String)
(declare-fun s687 () String)
(declare-fun s469 () String)
(declare-fun s272 () String)
(declare-fun s94 () String)
(declare-fun s856 () String)
(declare-fun s867 () String)
(declare-fun s642 () String)
(declare-fun s351 () String)
(declare-fun s561 () String)
(declare-fun s490 () String)
(declare-fun s17 () String)
(declare-fun s115 () String)
(declare-fun s807 () String)
(declare-fun s817 () String)
(declare-fun s657 () String)
(declare-fun s664 () String)
(declare-fun s820 () String)
(declare-fun s419 () String)
(declare-fun s775 () String)
(declare-fun s846 () String)
(declare-fun s730 () String)
(declare-fun s295 () String)
(declare-fun s877 () String)
(declare-fun s508 () String)
(declare-fun s726 () String)
(declare-fun s127 () String)
(declare-fun s84 () String)
(declare-fun s720 () String)
(declare-fun s678 () String)
(declare-fun s537 () String)
(declare-fun s223 () String)
(declare-fun s283 () String)
(declare-fun s772 () String)
(declare-fun s631 () String)
(declare-fun s386 () String)
(declare-fun s915 () String)
(declare-fun s362 () String)
(declare-fun s641 () String)
(declare-fun s811 () String)
(declare-fun s703 () String)
(declare-fun s401 () String)
(declare-fun s885 () String)
(declare-fun s129 () String)
(declare-fun s414 () String)
(declare-fun s38 () String)
(declare-fun s369 () String)
(declare-fun s479 () String)
(declare-fun s658 () String)
(declare-fun s889 () String)
(declare-fun s125 () String)
(declare-fun s716 () String)
(declare-fun s583 () String)
(declare-fun s119 () String)
(declare-fun s80 () String)
(declare-fun s834 () String)
(declare-fun s667 () String)
(declare-fun s532 () String)
(declare-fun s821 () String)
(declare-fun s397 () String)
(declare-fun s866 () String)
(declare-fun s408 () String)
(declare-fun s831 () String)
(declare-fun s526 () String)
(declare-fun s632 () String)
(declare-fun s876 () String)
(declare-fun s143 () String)
(declare-fun s468 () String)
(declare-fun s559 () String)
(declare-fun s52 () String)
(declare-fun s224 () String)
(declare-fun s706 () String)
(declare-fun s843 () String)
(declare-fun s905 () String)
(declare-fun s478 () String)
(declare-fun s613 () String)
(declare-fun s644 () String)
(declare-fun s387 () String)
(declare-fun s677 () String)
(declare-fun s433 () String)
(declare-fun s857 () String)
(declare-fun s37 () String)
(declare-fun s79 () String)
(declare-fun s625 () String)
(declare-fun s792 () String)
(declare-fun s321 () String)
(declare-fun s839 () String)
(declare-fun s593 () String)
(declare-fun s734 () String)
(declare-fun s869 () String)
(declare-fun s674 () String)
(declare-fun s698 () String)
(declare-fun s713 () String)
(declare-fun s912 () String)
(declare-fun s58 () String)
(declare-fun s514 () String)
(declare-fun s743 () String)
(declare-fun s426 () String)
(declare-fun s882 () String)
(declare-fun s10 () String)
(declare-fun s101 () String)
(declare-fun s345 () String)
(declare-fun s710 () String)
(declare-fun s873 () String)
(declare-fun s0 () String)
(declare-fun s451 () String)
(declare-fun s628 () String)
(declare-fun s827 () String)
(declare-fun s496 () String)
(declare-fun s391 () String)
(declare-fun s350 () String)
(declare-fun s701 () String)
(declare-fun s16 () String)
(declare-fun s913 () String)
(declare-fun s444 () String)
(declare-fun s810 () String)
(declare-fun s733 () String)
(declare-fun s688 () String)
(declare-fun s241 () String)
(declare-fun s187 () String)
(declare-fun s515 () String)
(declare-fun s836 () String)
(declare-fun s258 () String)
(declare-fun s63 () String)
(declare-fun s804 () String)
(declare-fun s883 () String)
(declare-fun s547 () String)
(declare-fun s31 () String)
(declare-fun s373 () String)
(declare-fun s588 () String)
(declare-fun s282 () String)
(declare-fun s833 () String)
(declare-fun s178 () String)
(declare-fun s462 () String)
(declare-fun s756 () String)
(declare-fun s859 () String)
(declare-fun s704 () String)
(declare-fun s783 () String)
(declare-fun s601 () String)
(declare-fun s680 () String)
(declare-fun s450 () String)
(declare-fun s100 () String)
(declare-fun s114 () String)
(declare-fun s694 () String)
(declare-fun s182 () String)
(declare-fun s396 () String)
(declare-fun s533 () String)
(declare-fun s229 () String)
(declare-fun s287 () String)
(declare-fun s880 () String)
(declare-fun s278 () String)
(declare-fun s2 () String)
(declare-fun s668 () String)
(declare-fun s638 () String)
(declare-fun s473 () String)
(declare-fun s501 () String)
(declare-fun s909 () String)
(declare-fun s830 () String)
(declare-fun s724 () String)
(declare-fun s879 () String)
(declare-fun s863 () String)
(declare-fun s660 () String)
(declare-fun s697 () String)
(declare-fun s558 () String)
(declare-fun s355 () String)
(declare-fun s813 () String)
(declare-fun s432 () String)
(declare-fun s415 () String)

(assert (= true (= true (= s373 s368 ) ) ))
(assert (= true (= true (= s533 "Please make your choice\u{2e} \u{28}P, K, G, R, L, H, Q\u{29}: " ) ) ))
(assert (= true (= true (= s598 "r" ) ) ))
(assert (= true (= true (= s808 ", your health is at " ) ) ))
(assert (= true (= true (= s783 "You don't need to do that\u{2e}  Your knife isn't broken\u{2e}\u{2a}" ) ) ))
(assert (= true (= true (= s613 "q" ) ) ))
(assert (= true (= true (= s17 "\u{2d}\u{2d}\u{2d}                                 \u{2d}\u{2d}\u{2d}\u{2a}" ) ) ))
(assert (= true (= true (= s905 s902 ) ) ))
(assert (= true (= true (= s915 s912 ) ) ))
(assert (= true (= true (= s84 s79 ) ) ))
(assert (= true (= true (= s80 "=======================================\u{2a}\u{2a}" ) ) ))
(assert (= true (= true (= s419 s414 ) ) ))
(assert (= true (= true (= s369 " points\u{2e}\u{2a}" ) ) ))
(assert (= true (= true (= s664 s660 ) ) ))
(assert (= true (= true (= s444 s437 ) ) ))
(assert (= true (= true (= s101 "What is thy name, " ) ) ))
(assert (= true (= true (= s490 s483 ) ) ))
(assert (= true (= true (= s678 "\u{28}P\u{29} Punch the monster\u{2a}" ) ) ))
(assert (= true (= true (= s59 "\u{2d}\u{2d}\u{2d}                                 \u{2d}\u{2d}\u{2d}\u{2a}" ) ) ))
(assert (= true (= true (= s893 "\u{28} \u{29} You are healthy\u{2a}" ) ) ))
(assert (= true (= true (= s873 s869 ) ) ))
(assert (= true (= true (= s508 s501 ) ) ))
(assert (= true (= true (= s408 s401 ) ) ))
(assert (= true (= true (= s831 "You are facing monster \u{23}" ) ) ))
(assert (= true (= true (= s781 "r" ) ) ))
(assert (= true (= true (= s655 "1" ) ) ))
(assert (= true (= true (= s837 " of 6\u{2e}\u{2a}\u{2a}" ) ) ))
(assert (= true (= true (= s834 "1" ) ) ))
(assert (= true (= true (= s63 s58 ) ) ))
(assert (= true (= true (= s187 "\u{3f} \u{28}Y/n\u{29}: " ) ) ))
(assert (= true (= true (= s847 "What will you do\u{3f}\u{2a}" ) ) ))
(assert (= true (= true (= s698 "\u{28}G\u{29} Shoot the monster with your gun \u{28}x" ) ) ))
(assert (= true (= true (= s346 ", your health is at " ) ) ))
(assert (= true (= true (= s311 "y" ) ) ))
(assert (= true (= true (= s726 s723 ) ) ))
(assert (= true (= true (= s753 "1" ) ) ))
(assert (= true (= true (= s224 "1" ) ) ))
(assert (= true (= true (= s415 "What will you do\u{3f}\u{2a}" ) ) ))
(assert (= true (= true (= s701 "6" ) ) ))
(assert (= true (= true (= s537 s532 ) ) ))
(assert (= true (= true (= s638 s634 ) ) ))
(assert (= true (= true (= s877 "\u{28}G\u{29} Shoot the monster with your gun \u{28}x" ) ) ))
(assert (= true (= true (= s839 s836 ) ) ))
(assert (= true (= true (= s817 s813 ) ) ))
(assert (= true (= true (= s804 s161 ) ) ))
(assert (= true (= true (= s724 "\u{28}Q\u{29} Quit the game\u{2a}\u{2a}" ) ) ))
(assert (= true (= true (= s295 "y" ) ) ))
(assert (= true (= true (= s869 s866 ) ) ))
(assert (= true (= true (= s859 s856 ) ) ))
(assert (= true (= true (= s720 s716 ) ) ))
(assert (= true (= true (= s283 "\u{2e}  Let us begin\u{2e}\u{2e}\u{2e}\u{2a}\u{2a}" ) ) ))
(assert (= true (= true (= s258 "n" ) ) ))
(assert (= true (= true (= s583 "p" ) ) ))
(assert (= true (= true (= s883 "\u{29}\u{2a}" ) ) ))
(assert (= true (= true (= s772 "p" ) ) ))
(assert (= true (= true (= s433 "\u{28}P\u{29} Punch the monster\u{2a}" ) ) ))
(assert (= true (= true (= s526 s519 ) ) ))
(assert (= true (= true (= s387 "You are facing monster \u{23}" ) ) ))
(assert (= true (= true (= s811 "100" ) ) ))
(assert (= true (= true (= s52 s42 ) ) ))
(assert (= true (= true (= s129 "" ) ) ))
(assert (= true (= true (= s857 "\u{28}P\u{29} Punch the monster\u{2a}" ) ) ))
(assert (= true (= true (= s339 s161 ) ) ))
(assert (= true (= true (= s191 s186 ) ) ))
(assert (= true (= true (= s634 s631 ) ) ))
(assert (= true (= true (= s21 s16 ) ) ))
(assert (= true (= true (= s885 s882 ) ) ))
(assert (= true (= true (= s479 "\u{29}\u{2a}" ) ) ))
(assert (= true (= true (= s501 s496 ) ) ))
(assert (= true (= true (= s706 s703 ) ) ))
(assert (= true (= true (= s813 s810 ) ) ))
(assert (= true (= true (= s823 s820 ) ) ))
(assert (= true (= true (= s462 s455 ) ) ))
(assert (= true (= true (= s754 "0" ) ) ))
(assert (= true (= true (= s588 "k" ) ) ))
(assert (= true (= true (= s827 s823 ) ) ))
(assert (= true (= true (= s73 s63 ) ) ))
(assert (= true (= true (= s115 "\u{3f} " ) ) ))
(assert (= true (= true (= s775 "k" ) ) ))
(assert (= true (= true (= s593 "g" ) ) ))
(assert (= true (= true (= s734 "Please make your choice\u{2e} \u{28}P, K, G, R, L, H, Q\u{29}: " ) ) ))
(assert (= true (= true (= s241 "y" ) ) ))
(assert (= true (= true (= s497 "\u{28} \u{29} You are healthy\u{2a}" ) ) ))
(assert (= true (= true (= s119 s114 ) ) ))
(assert (= true (= true (= s483 s478 ) ) ))
(assert (= true (= true (= s889 s885 ) ) ))
(assert (= true (= true (= s899 s895 ) ) ))
(assert (= true (= true (= s380 s373 ) ) ))
(assert (= true (= true (= s867 "\u{28}K\u{29} Stab the monster with your knife\u{2a}" ) ) ))
(assert (= true (= true (= s716 s713 ) ) ))
(assert (= true (= true (= s519 s514 ) ) ))
(assert (= true (= true (= s821 " points\u{2e}\u{2a}" ) ) ))
(assert (= true (= true (= s94 s84 ) ) ))
(assert (= true (= true (= s880 "6" ) ) ))
(assert (= true (= true (= s642 " points\u{2e}\u{2a}" ) ) ))
(assert (= true (= true (= s558 "1" ) ) ))
(assert (= true (= true (= s244 "y" ) ) ))
(assert (= true (= true (= s225 "0" ) ) ))
(assert (= true (= true (= s694 s690 ) ) ))
(assert (= true (= true (= s125 "" ) ) ))
(assert (= true (= true (= s690 s687 ) ) ))
(assert (= true (= true (= s355 s350 ) ) ))
(assert (= true (= true (= s895 s892 ) ) ))
(assert (= true (= true (= s401 s396 ) ) ))
(assert (= true (= true (= s909 s905 ) ) ))
(assert (= true (= true (= s455 s450 ) ) ))
(assert (= true (= true (= s652 "You are facing monster \u{23}" ) ) ))
(assert (= true (= true (= s704 "\u{29}\u{2a}" ) ) ))
(assert (= true (= true (= s863 s859 ) ) ))
(assert (= true (= true (= s913 "Please make your choice\u{2e} \u{28}P, K, G, R, L, H, Q\u{29}: " ) ) ))
(assert (= true (= true (= s42 s37 ) ) ))
(assert (= true (= true (= s426 s419 ) ) ))
(assert (= true (= true (= s710 s706 ) ) ))
(assert (= true (= true (= s625 s161 ) ) ))
(assert (= true (= true (= s392 "1" ) ) ))
(assert (= true (= true (= s31 s21 ) ) ))
(assert (= true (= true (= s730 s726 ) ) ))
(assert (= true (= true (= s515 "\u{28}Q\u{29} Quit the game\u{2a}\u{2a}" ) ) ))
(assert (= true (= true (= s127 "" ) ) ))
(assert (= true (= true (= s714 "\u{28} \u{29} You are healthy\u{2a}" ) ) ))
(assert (= true (= true (= s644 s641 ) ) ))
(assert (= true (= true (= s474 "6" ) ) ))
(assert (= true (= true (= s648 s644 ) ) ))
(assert (= true (= true (= s38 "\u{2d}\u{2d}\u{2d}         B E A S T I E S         \u{2d}\u{2d}\u{2d}\u{2a}" ) ) ))
(assert (= true (= true (= s849 s846 ) ) ))
(assert (= true (= true (= s843 s839 ) ) ))
(assert (= true (= true (= s178 "So, you wish to be known as " ) ) ))
(assert (= true (= true (= s287 s282 ) ) ))
(assert (= true (= true (= s688 "\u{28}K\u{29} Stab the monster with your knife\u{2a}" ) ) ))
(assert (= true (= true (= s321 "q" ) ) ))
(assert (= true (= true (= s397 " of 6\u{2e}\u{2a}\u{2a}" ) ) ))
(assert (= true (= true (= s351 "100" ) ) ))
(assert (= true (= true (= s559 "0" ) ) ))
(assert (= true (= true (= s853 s849 ) ) ))
(assert (= true (= true (= s736 s733 ) ) ))
(assert (= true (= true (= s658 " of 6\u{2e}\u{2a}\u{2a}" ) ) ))
(assert (= true (= true (= s437 s432 ) ) ))
(assert (= true (= true (= s903 "\u{28}Q\u{29} Quit the game\u{2a}\u{2a}" ) ) ))
(assert (= true (= true (= s601 "You don't need to do that\u{2e}  Your knife isn't broken\u{2e}\u{2a}" ) ) ))
(assert (= true (= true (= s670 s667 ) ) ))
(assert (= true (= true (= s684 s680 ) ) ))
(assert (= true (= true (= s778 "g" ) ) ))
(assert (= true (= true (= s469 "\u{28}G\u{29} Shoot the monster with your gun \u{28}x" ) ) ))
(assert (= true (= true (= s792 "q" ) ) ))
(assert (= true (= true (= s0 "valiant warrior" ) ) ))
(assert (= true (= true (= s362 s355 ) ) ))
(assert (= true (= true (= s668 "What will you do\u{3f}\u{2a}" ) ) ))
(assert (= true (= true (= s629 ", your health is at " ) ) ))
(assert (= true (= true (= s632 "100" ) ) ))
(assert (= true (= true (= s660 s657 ) ) ))
(assert (= true (= true (= s143 "y" ) ) ))
(assert (= true (= true (= s272 "Very well, " ) ) ))
(assert (= true (= true (= s10 s2 ) ) ))
(assert (= true (= true (= s451 "\u{28}K\u{29} Stab the monster with your knife\u{2a}" ) ) ))
(assert (= true (= true (= s674 s670 ) ) ))
(assert (= true (= true (= s680 s677 ) ) ))
(assert (= true (= true (= s2 "=======================================\u{2a}" ) ) ))
(assert (= true (= true (= s876 (str.++ s873 s877 ) ) ) ))
(assert (= true (= true (= s368 (str.++ s362 s369 ) ) ) ))
(assert (= true (= true (= s677 (str.++ s674 s678 ) ) ) ))
(assert (= true (= true (= s110 (str.++ s100 s0 ) ) ) ))
(assert (= true (= true (= s223 (str.substr s205 0 1 ) ) ) ))
(assert (= true (= true (= s16 (str.++ s10 s17 ) ) ) ))
(assert (= true (= true (= s752 (str.substr s743 0 1 ) ) ) ))
(assert (= true (= true (= s450 (str.++ s444 s451 ) ) ) ))
(assert (= true (= true (= s473 (str.++ s468 s474 ) ) ) ))
(assert (= true (= true (= s836 (str.++ s833 s837 ) ) ) ))
(assert (= true (= true (= s386 (str.++ s380 s387 ) ) ) ))
(assert (= true (= true (= s830 (str.++ s827 s831 ) ) ) ))
(assert (= true (= true (= s713 (str.++ s710 s714 ) ) ) ))
(assert (= true (= true (= s350 (str.++ s345 s351 ) ) ) ))
(assert (= true (= true (= s514 (str.++ s508 s515 ) ) ) ))
(assert (= true (= true (= s723 (str.++ s720 s724 ) ) ) ))
(assert (= true (= true (= s651 (str.++ s648 s652 ) ) ) ))
(assert (= true (= true (= s882 (str.++ s879 s883 ) ) ) ))
(assert (= true (= true (= s820 (str.++ s817 s821 ) ) ) ))
(assert (= true (= true (= s100 (str.++ s94 s101 ) ) ) ))
(assert (= true (= true (= s846 (str.++ s843 s847 ) ) ) ))
(assert (= true (= true (= s902 (str.++ s899 s903 ) ) ) ))
(assert (= true (= true (= s667 (str.++ s664 s668 ) ) ) ))
(assert (= true (= true (= s414 (str.++ s408 s415 ) ) ) ))
(assert (= true (= true (= s810 (str.++ s807 s811 ) ) ) ))
(assert (= true (= true (= s114 (str.++ s110 s115 ) ) ) ))
(assert (= true (= true (= s856 (str.++ s853 s857 ) ) ) ))
(assert (= true (= true (= s182 (str.++ s178 s161 ) ) ) ))
(assert (= true (= true (= s912 (str.++ s909 s913 ) ) ) ))
(assert (= true (= true (= s657 (str.++ s654 s658 ) ) ) ))
(assert (= true (= true (= s687 (str.++ s684 s688 ) ) ) ))
(assert (= true (= true (= s703 (str.++ s700 s704 ) ) ) ))
(assert (= true (= true (= s641 (str.++ s638 s642 ) ) ) ))
(assert (= true (= true (= s396 (str.++ s391 s397 ) ) ) ))
(assert (= true (= true (= s833 (str.++ s830 s834 ) ) ) ))
(assert (= true (= true (= s432 (str.++ s426 s433 ) ) ) ))
(assert (= true (= true (= s879 (str.++ s876 s880 ) ) ) ))
(assert (= true (= true (= s186 (str.++ s182 s187 ) ) ) ))
(assert (= true (= true (= s345 (str.++ s339 s346 ) ) ) ))
(assert (= true (= true (= s532 (str.++ s526 s533 ) ) ) ))
(assert (= true (= true (= s733 (str.++ s730 s734 ) ) ) ))
(assert (= true (= true (= s700 (str.++ s697 s701 ) ) ) ))
(assert (= true (= true (= s631 (str.++ s628 s632 ) ) ) ))
(assert (= true (= true (= s557 (str.substr s547 0 1 ) ) ) ))
(assert (= true (= true (= s697 (str.++ s694 s698 ) ) ) ))
(assert (= true (= true (= s807 (str.++ s804 s808 ) ) ) ))
(assert (= true (= true (= s654 (str.++ s651 s655 ) ) ) ))
(assert (= true (= true (= s391 (str.++ s386 s392 ) ) ) ))
(assert (= true (= true (= s278 (str.++ s272 s161 ) ) ) ))
(assert (= true (= true (= s866 (str.++ s863 s867 ) ) ) ))
(assert (= true (= true (= s496 (str.++ s490 s497 ) ) ) ))
(assert (= true (= true (= s478 (str.++ s473 s479 ) ) ) ))
(assert (= true (= true (= s58 (str.++ s52 s59 ) ) ) ))
(assert (= true (= true (= s468 (str.++ s462 s469 ) ) ) ))
(assert (= true (= true (= s79 (str.++ s73 s80 ) ) ) ))
(assert (= true (= true (= s892 (str.++ s889 s893 ) ) ) ))
(assert (= true (= true (= s628 (str.++ s625 s629 ) ) ) ))
(assert (= true (= true (= s37 (str.++ s31 s38 ) ) ) ))
(assert (= true (= true (= s282 (str.++ s278 s283 ) ) ) ))

(check-sat)
